26386.7
99 2 19 87 37 72 33 5 14 54 58 31 6 9 32 26 73 34 48 8 36 86 68 17 35 44 46 67 63 90 76 84 56 93 16 43 66 92 98 96 7 61 0 95 28 27 62 13 78 85 71 69 3 94 50 24 81 88 45 83 10 11 80 97 77 65 57 39 47 22 59 53 51 42 21 18 91 74 52 38 79 23 89 15 41 25 4 60 49 55 29 64 1 20 75 70 30 12 82 40 
